c A SAT instance generated from a 2-CNF formula that had 21 clauses and 7 variables
p cnf 7 21
6 2 0
2 4 0
3 5 0
4 -1 0
-1 -6 0
-6 5 0
-3 7 0
-3 4 0
1 5 0
7 -1 0
7 -2 0
3 2 0
-6 3 0
-5 -1 0
4 -2 0
3 -7 0
3 1 0
-2 4 0
3 -4 0
-1 -2 0
6 7 0
